c generated by sgen
p cnf 53 116
-2 -3 -4 0
-1 -3 -4 0
-1 -2 -4 0
-1 -2 -3 0
-6 -7 -8 0
-5 -7 -8 0
-5 -6 -8 0
-5 -6 -7 0
-10 -11 -12 0
-9 -11 -12 0
-9 -10 -12 0
-9 -10 -11 0
-14 -15 -16 0
-13 -15 -16 0
-13 -14 -16 0
-13 -14 -15 0
-18 -19 -20 0
-17 -19 -20 0
-17 -18 -20 0
-17 -18 -19 0
-22 -23 -24 0
-21 -23 -24 0
-21 -22 -24 0
-21 -22 -23 0
-26 -27 -28 0
-25 -27 -28 0
-25 -26 -28 0
-25 -26 -27 0
-30 -31 -32 0
-29 -31 -32 0
-29 -30 -32 0
-29 -30 -31 0
-34 -35 -36 0
-33 -35 -36 0
-33 -34 -36 0
-33 -34 -35 0
-38 -39 -40 0
-37 -39 -40 0
-37 -38 -40 0
-37 -38 -39 0
-42 -43 -44 0
-41 -43 -44 0
-41 -42 -44 0
-41 -42 -43 0
-46 -47 -48 0
-45 -47 -48 0
-45 -46 -48 0
-45 -46 -47 0
-49 -50 -51 0
-49 -50 -52 0
-49 -50 -53 0
-49 -51 -52 0
-49 -51 -53 0
-49 -52 -53 0
-50 -51 -52 0
-50 -51 -53 0
-50 -52 -53 0
-51 -52 -53 0
22 4 43 0
39 4 43 0
39 22 43 0
39 22 4 0
5 19 35 0
1 19 35 0
1 5 35 0
1 5 19 0
25 13 20 0
41 13 20 0
41 25 20 0
41 25 13 0
50 40 28 0
6 40 28 0
6 50 28 0
6 50 40 0
30 48 27 0
2 48 27 0
2 30 27 0
2 30 48 0
38 10 32 0
17 10 32 0
17 38 32 0
17 38 10 0
36 31 42 0
53 31 42 0
53 36 42 0
53 36 31 0
8 11 45 0
44 11 45 0
44 8 45 0
44 8 11 0
34 15 37 0
46 15 37 0
46 34 37 0
46 34 15 0
3 16 51 0
12 16 51 0
12 3 51 0
12 3 16 0
52 47 18 0
24 47 18 0
24 52 18 0
24 52 47 0
26 33 9 0
21 33 9 0
21 26 9 0
21 26 33 0
7 29 14 0
7 29 49 0
7 29 23 0
7 14 49 0
7 14 23 0
7 49 23 0
29 14 49 0
29 14 23 0
29 49 23 0
14 49 23 0
